Using license file /home/benedond/gurobi.lic
Using gurobi.env file
Set parameter Threads to value 1
Academic license - for non-commercial use only
Changed value of parameter TimeLimit to 300.0
   Prev: inf  Min: 0.0  Max: inf  Default: inf
Gurobi Optimizer version 9.0.1 build v9.0.1rc0 (linux64)
Optimize a model with 4230 rows, 4095 columns and 16333 nonzeros
Model fingerprint: 0x4d45d417
Variable types: 45 continuous, 4050 integer (4050 binary)
Coefficient statistics:
  Matrix range     [1e+00, 4e+02]
  Objective range  [4e+01, 4e+02]
  Bounds range     [1e+00, 1e+00]
  RHS range        [1e+00, 2e+03]
Presolve removed 54 rows and 54 columns
Presolve time: 0.28s
Presolved: 4176 rows, 4041 columns, 16117 nonzeros
Variable types: 45 continuous, 3996 integer (3996 binary)

Root relaxation: objective 7.267000e+03, 759 iterations, 0.03 seconds

    Nodes    |    Current Node    |     Objective Bounds      |     Work
 Expl Unexpl |  Obj  Depth IntInf | Incumbent    BestBd   Gap | It/Node Time

     0     0 7267.00000    0   75          - 7267.00000      -     -    0s
H    0     0                    5991.0000000 7267.00000  21.3%     -    0s
H    0     0                    6447.0000000 7267.00000  12.7%     -    1s
     0     0 7267.00000    0   33 6447.00000 7267.00000  12.7%     -    1s
     0     0 7267.00000    0   53 6447.00000 7267.00000  12.7%     -    5s
H    0     0                    6516.0000000 7267.00000  11.5%     -    6s
     0     0 7267.00000    0   61 6516.00000 7267.00000  11.5%     -    6s
     0     0 7267.00000    0   73 6516.00000 7267.00000  11.5%     -    6s
     0     0 7267.00000    0   70 6516.00000 7267.00000  11.5%     -    6s
     0     0 7267.00000    0   72 6516.00000 7267.00000  11.5%     -    6s
     0     0 7267.00000    0   84 6516.00000 7267.00000  11.5%     -    6s
     0     0 7267.00000    0   43 6516.00000 7267.00000  11.5%     -    6s
     0     0 7267.00000    0   43 6516.00000 7267.00000  11.5%     -    6s
     0     0 7267.00000    0   73 6516.00000 7267.00000  11.5%     -    7s
     0     0 7267.00000    0   72 6516.00000 7267.00000  11.5%     -    7s
     0     0 7267.00000    0   40 6516.00000 7267.00000  11.5%     -    7s
     0     0 7267.00000    0   40 6516.00000 7267.00000  11.5%     -    7s
H    0     0                    6580.0000000 7267.00000  10.4%     -    7s
     0     2 7267.00000    0   30 6580.00000 7267.00000  10.4%     -    7s
    27    24 7267.00000   19   62 6580.00000 7267.00000  10.4%   221   10s
   138   109 7267.00000   38   86 6580.00000 7267.00000  10.4%   144   15s
H  169   134                    6645.0000000 7267.00000  9.36%   146   15s
   511   416 7163.00000  112   33 6645.00000 7267.00000  9.36%   109   24s
   518   421 7128.00000  103   75 6645.00000 7267.00000  9.36%   107   25s
H  529   406                    6864.0000000 7267.00000  5.87%   105   26s
H  557   395                    6994.0000000 7267.00000  3.90%   134   28s
H  584   390                    7105.0000000 7267.00000  2.28%   131   29s
   591   396 7267.00000   42   57 7105.00000 7267.00000  2.28%   130   30s
H  638   398                    7171.0000000 7267.00000  1.34%   122   30s
H  693   397                    7210.0000000 7267.00000  0.79%   114   31s
  1215   438 7267.00000  100   20 7210.00000 7267.00000  0.79%  74.8   35s
  2278   720 7267.00000   92   25 7210.00000 7267.00000  0.79%  49.8   40s
  3746  1225 7267.00000   86   41 7210.00000 7267.00000  0.79%  36.9   45s
  5104  1666 7267.00000   85   62 7210.00000 7267.00000  0.79%  32.2   50s
H 5153  1599                    7222.0000000 7267.00000  0.62%  35.7   54s
  5227  1625 infeasible   58      7222.00000 7267.00000  0.62%  35.8   55s
  5731  1572 7267.00000   57   50 7222.00000 7267.00000  0.62%  36.2   60s
H 5907  1255                    7267.0000000 7267.00000  0.00%  35.7   61s

Cutting planes:
  Projected implied bound: 2
  Flow cover: 2
  Relax-and-lift: 3

Explored 5908 nodes (234451 simplex iterations) in 61.15 seconds
Thread count was 1 (of 4 available processors)

Solution count 10: 7267 7222 7210 ... 6516

Optimal solution found (tolerance 1.00e-04)
Best objective 7.267000000000e+03, best bound 7.267000000000e+03, gap 0.0000%
